c Sudoku solution
p cnf 729 0
112 0
145 0
186 0
197 0
218 0
275 0
299 0
333 0
452 0
547 0
558 0
622 0
659 0
676 0
691 0
723 0
744 0
643 0
817 0
831 0
893 0
926 0
796 0
953 0
977 0
998 0
134 0
151 0
129 0
242 0
614 0
665 0
824 0
738 0
932 0
984 0
428 0
637 0
495 0
487 0
688 0
535 0
521 0
311 0
227 0
325 0
236 0
281 0
173 0
168 0
263 0
254 0
439 0
848 0
915 0
719 0
771 0
474 0
592 0
413 0
516 0
564 0
579 0
583 0
378 0
872 0
785 0
889 0
762 0
757 0
855 0
866 0
356 0
349 0
367 0
446 0
461 0
941 0
969 0
382 0
394 0
